# w - peso do item
set a:=
1
2
3
4
5
6
7
8
9
10
11
12
13
14
15
16
17
18
19
20
21
22
23
24
25
26
27
28
29
30
31
32
33
34
35
36
37
38
39
40
41
42
43
44
45
46
47
48
49
50
51
52
53
54
55
56
57
58
59
60
61
62
63
64
65
66
67
68
69
70
71
72
73
74
75
76
77
78
79
80
81
82
83
84
85
86
87
88
89
90
91
92
93
94
95
96
97
98
99
100
101
102
103
104
105
106
107
108
109
110
111
112
113
114
115
116
117
118
119
120
121
122
123
124
125
126
127
128
129
130
131
132
133
134
135
136
137
138
139
140
141
142
143
144
145
146
147
148
149
150
151
152
153
154
155
156
157
158
159
160
161
162
163
164
165
166
167
168
169
170
171
172
173
174
175
176
177
178
179
180
181
182
183
184
185
186
187
188
189
190
191
192
193
194
195
196
197
198
199
200
201
202
203
204
205
206
207
208
209
210
211
212
213
214
215
216
217
218
219
220
221
222
223
224
225
226
227
228
229
230
231
232
233
234
235
236
237
238
239
240
241
242
243
244
245
246
247
248
249
250
251
252
253
254
255
256
257
258
259
260
261
262
263
264
265
266
267
268
269
270
271
272
273
274
275
276
277
278
279
280
281
282
283
284
285
286
287
288
289
290
291
292
293
294
295
296
297
298
299
300
301
302
303
304
305
306
307
308
309
310
311
312
313
314
315
316
317
318
319
320
321
322
323
324
325
326
327
328
329
330
331
332
333
334
335
336
337
338
339
340
341
342
343
344
345
346
347
348
349
350
351
352
353
354
355
356
357
358
359
360
361
362
363
364
365
366
367
368
369
370
371
372
373
374
375
376
377
378
379
380
381
382
383
384
385
386
387
388
389
390
391
392
393
394
395
396
397
398
399
400
401
402
403
404
405
406
407
408
409
410
411
412
413
414
415
416
417
418
419
420
421
422
423
424
425
426
427
428
429
430
431
432
433
434
435
436
437
438
439
440
441
442
443
444
445
446
447
448
449
450
451
452
453
454
455
456
457
458
459
460
461
462
463
464
465
466
467
468
469
470
471
472
473
474
475
476
477
478
479
480
481
482
483
484
485
486
487
488
489
490
491
492
493
494
495
496
497
498
499
500
501
502
503
504
505
506
507
508
509
510
511
512
513
514
515
516
517
518
519
520
521
522
523
524
525
526
527
528
529
530
531
532
533
534
535
536
537
538
539
540
541
542
543
544
545
546
547
548
549
550
551
552
553
554
555
556
557
558
559
560
561
562
563
564
565
566
567
568
569
570
571
572
573
574
575
576
577
578
579
580
581
582
583
584
585
586
587
588
589
590
591
592
593
594
595
596
597
598
599
600
601
602
603
604
605
606
607
608
609
610
611
612
613
614
615
616
617
618
619
620
621
622
623
624
625
626
627
628
629
630
631
632
633
634
635
636
637
638
639
640
641
642
643
644
645
646
647
648
649
650
651
652
653
654
655
656
657
658
659
660
661
662
663
664
665
666
667
668
669
670
671
672
673
674
675
676
677
678
679
680
681
682
683
684
685
686
687
688
689
690
691
692
693
694
695
696
697
698
699
700
701
702
703
704
705
706
707
708
709
710
711
712
713
714
715
716
717
718
719
720
721
722
723
724
725
726
727
728
729
730
731
732
733
734
735
736
737
738
739
740
741
742
743
744
745
746
747
748
749
750
751
752
753
754
755
756
757
758
759
760
761
762
763
764
765
766
767
768
769
770
771
772
773
774
775
776
777
778
779
780
781
782
783
784
785
786
787
788
789
790
791
792
793
794
795
796
797
798
799
800
801
802
803
804
805
806
807
808
809
810
811
812
813
814
815
816
817
818
819
820
821
822
823
824
825
826
827
828
829
830
831
832
833
834
835
836
837
838
839
840
841
842
843
844
845
846
847
848
849
850
851
852
853
854
855
856
857
858
859
860
861
862
863
864
865
866
867
868
869
870
871
872
873
874
875
876
877
878
879
880
881
882
883
884
885
886
887
888
889
890
891
892
893
894
895
896
897
898
899
900
901
902
903
904
905
906
907
908
909
910
911
912
913
914
915
916
917
918
919
920
921
922
923
924
925
926
927
928
929
930
931
932
933
934
935
936
937
938
939
940
941
942
943
944
945
946
947
948
949
950
951
952
953
954
955
956
957
958
959
960
961
962
963
964
965
966
967
968
969
970
971
972
973
974
975
976
977
978
979
980
981
982
983
984
985
986
987
988
989
990
991
992
993
994
995
996
997
998
999
1000
1001
1002
1003
1004
1005
1006
1007
1008
1009
1010
1011
1012
1013
1014
1015
1016
1017
1018
1019
1020
1021
1022
1023
1024
1025
1026
1027
1028
1029
1030
1031
1032
1033
1034
1035
1036
1037
1038
1039
1040
1041
1042
1043
1044
1045
1046
1047
1048
1049
1050
1051
1052
1053
1054
1055
1056
1057
1058
1059
1060
1061
1062
1063
1064
1065
1066
1067
1068
1069
1070
1071
1072
1073
1074
1075
1076
1077
1078
1079
1080
1081
1082
1083
1084
1085
1086
1087
1088
1089
1090
1091
1092
1093
1094
1095
1096
1097
1098
1099
1100
1101
1102
1103
1104
1105
1106
1107
1108
1109
1110
1111
1112
1113
1114
1115
1116
1117
1118
1119
1120
1121
1122
1123
1124
1125
1126
1127;

set v:= 1   2	3	4	5	6	7	8	9	10	11	12	13	14	15	16	17	18	19	20	21	22	23	24	25	26	27	28	29	30	31	32	33	34	35	36	37	38	39	40	41	42	43	44	45	46	47	48	49	50	51	52	53	54	55	56	57	58	59	60	61	62	63	64	65	66	67	68	69	70	71;


# C - capacidade da mochila

param:vagas:=	
1	5
2	8
3	1
4	12
5	3
6	9
7	7
8	9
9	10
10	10
11	3
12	4
13	1
14	16
15	23
16	5
17	16
18	5
19	27
20	8
21	2
22	10
23	14
24	30
25	12
26	13
27	6
28	4
29	5
30	4
31	9
32	5
33	3
34	6
35	3
36	22
37	5
38	4
39	7
40	2
41	7
42	8
43	17
44	23
45	1
46	4
47	6
48	15
49	9
50	16
51	18
52	6
53	1
54	7
55	1
56	6
57	6
58	4
59	11
60	11
61	4
62	15
63	3
64	19
65	15
66	2
67	5
68	5
69	3
70	3
71	19;




param: referencia_aluno:=		
1	1	
2	2	
3	2	
4	2	
5	2	
6	2	
7	2	
8	2	
9	2	
10	2	
11	2	
12	2	
13	2	
14	2	
15	2	
16	2	
17	2	
18	2	
19	2	
20	2	
21	2	
22	2	
23	2	
24	2	
25	2	
26	2	
27	2	
28	2	
29	2	
30	2	
31	2	
32	2	
33	2	
34	2	
35	2	
36	2	
37	2	
38	2	
39	2	
40	2	
41	2	
42	2	
43	2	
44	2	
45	2	
46	2	
47	2	
48	2	
49	2	
50	2	
51	2	
52	2	
53	2	
54	2	
55	2	
56	2	
57	8	
58	8	
59	8	
60	8	
61	8	
62	8	
63	8	
64	8	
65	8	
66	8	
67	8	
68	8	
69	8	
70	8	
71	8	
72	8	
73	8	
74	8	
75	8	
76	8	
77	8	
78	8	
79	8	
80	8	
81	8	
82	8	
83	8	
84	8	
85	8	
86	13	
87	13	
88	13	
89	13	
90	13	
91	13	
92	13	
93	13	
94	13	
95	13	
96	13	
97	13	
98	13	
99	13	
100	13	
101	13	
102	14	
103	14	
104	14	
105	14	
106	14	
107	14	
108	14	
109	14	
110	14	
111	14	
112	14	
113	14	
114	14	
115	14	
116	14	
117	14	
118	14	
119	14	
120	14	
121	14	
122	14	
123	14	
124	14	
125	14	
126	14	
127	14	
128	14	
129	14	
130	14	
131	14	
132	14	
133	14	
134	14	
135	14	
136	14	
137	14	
138	14	
139	14	
140	14	
141	14	
142	14	
143	14	
144	14	
145	14	
146	14	
147	14	
148	14	
149	14	
150	14	
151	14	
152	14	
153	14	
154	14	
155	14	
156	14	
157	14	
158	14	
159	14	
160	14	
161	14	
162	14	
163	14	
164	14	
165	14	
166	14	
167	14	
168	14	
169	14	
170	14	
171	14	
172	14	
173	14	
174	14	
175	15	
176	15	
177	15	
178	15	
179	15	
180	15	
181	15	
182	15	
183	15	
184	15	
185	15	
186	15	
187	15	
188	15	
189	15	
190	17	
191	17	
192	17	
193	17	
194	17	
195	17	
196	18	
197	18	
198	18	
199	18	
200	18	
201	18	
202	18	
203	18	
204	18	
205	18	
206	18	
207	18	
208	18	
209	18	
210	18	
211	18	
212	18	
213	18	
214	18	
215	18	
216	18	
217	18	
218	18	
219	18	
220	18	
221	18	
222	18	
223	18	
224	18	
225	18	
226	18	
227	18	
228	18	
229	18	
230	18	
231	18	
232	18	
233	18	
234	18	
235	18	
236	18	
237	18	
238	18	
239	18	
240	18	
241	18	
242	18	
243	18	
244	18	
245	18	
246	18	
247	18	
248	18	
249	18	
250	18	
251	18	
252	18	
253	18	
254	18	
255	18	
256	18	
257	18	
258	18	
259	18	
260	18	
261	18	
262	18	
263	18	
264	18	
265	18	
266	18	
267	18	
268	18	
269	18	
270	18	
271	18	
272	18	
273	18	
274	20	
275	20	
276	20	
277	20	
278	20	
279	20	
280	20	
281	20	
282	20	
283	20	
284	20	
285	20	
286	20	
287	20	
288	20	
289	20	
290	20	
291	20	
292	20	
293	20	
294	20	
295	20	
296	20	
297	20	
298	20	
299	20	
300	20	
301	20	
302	20	
303	20	
304	20	
305	20	
306	20	
307	20	
308	20	
309	20	
310	20	
311	20	
312	20	
313	20	
314	20	
315	20	
316	20	
317	20	
318	20	
319	20	
320	20	
321	20	
322	20	
323	20	
324	20	
325	20	
326	20	
327	20	
328	20	
329	20	
330	20	
331	20	
332	20	
333	20	
334	20	
335	20	
336	22	
337	22	
338	22	
339	22	
340	22	
341	22	
342	22	
343	22	
344	22	
345	22	
346	22	
347	22	
348	22	
349	22	
350	22	
351	22	
352	22	
353	22	
354	22	
355	22	
356	22	
357	22	
358	22	
359	22	
360	22	
361	22	
362	22	
363	22	
364	22	
365	22	
366	22	
367	22	
368	22	
369	22	
370	22	
371	22	
372	22	
373	22	
374	22	
375	22	
376	26	
377	26	
378	26	
379	26	
380	26	
381	27	
382	27	
383	27	
384	29	
385	29	
386	29	
387	29	
388	29	
389	29	
390	29	
391	29	
392	29	
393	29	
394	29	
395	29	
396	29	
397	29	
398	29	
399	29	
400	29	
401	29	
402	29	
403	29	
404	29	
405	29	
406	29	
407	29	
408	29	
409	29	
410	29	
411	29	
412	29	
413	29	
414	29	
415	29	
416	29	
417	29	
418	29	
419	29	
420	29	
421	29	
422	29	
423	29	
424	29	
425	29	
426	29	
427	29	
428	29	
429	29	
430	29	
431	29	
432	29	
433	29	
434	29	
435	29	
436	29	
437	29	
438	29	
439	29	
440	29	
441	29	
442	29	
443	29	
444	29	
445	29	
446	29	
447	29	
448	29	
449	29	
450	29	
451	29	
452	29	
453	29	
454	29	
455	29	
456	29	
457	29	
458	29	
459	29	
460	29	
461	29	
462	29	
463	29	
464	29	
465	29	
466	29	
467	29	
468	29	
469	29	
470	29	
471	29	
472	29	
473	29	
474	29	
475	29	
476	35	
477	35	
478	35	
479	35	
480	35	
481	35	
482	35	
483	35	
484	35	
485	35	
486	35	
487	35	
488	35	
489	35	
490	35	
491	35	
492	35	
493	35	
494	35	
495	35	
496	35	
497	35	
498	35	
499	35	
500	35	
501	35	
502	35	
503	35	
504	35	
505	35	
506	35	
507	35	
508	35	
509	35	
510	35	
511	35	
512	35	
513	35	
514	35	
515	35	
516	35	
517	35	
518	35	
519	35	
520	35	
521	35	
522	35	
523	35	
524	35	
525	35	
526	35	
527	35	
528	35	
529	35	
530	35	
531	35	
532	35	
533	35	
534	35	
535	35	
536	35	
537	35	
538	35	
539	35	
540	35	
541	35	
542	35	
543	35	
544	35	
545	35	
546	35	
547	35	
548	35	
549	35	
550	35	
551	35	
552	35	
553	35	
554	35	
555	35	
556	35	
557	35	
558	35	
559	35	
560	35	
561	35	
562	35	
563	35	
564	35	
565	35	
566	35	
567	35	
568	35	
569	35	
570	35	
571	35	
572	35	
573	35	
574	35	
575	35	
576	35	
577	35	
578	35	
579	35	
580	35	
581	35	
582	35	
583	35	
584	35	
585	35	
586	35	
587	35	
588	35	
589	35	
590	35	
591	35	
592	35	
593	35	
594	35	
595	35	
596	35	
597	35	
598	35	
599	35	
600	35	
601	35	
602	35	
603	35	
604	35	
605	35	
606	35	
607	35	
608	35	
609	35	
610	35	
611	35	
612	35	
613	35	
614	35	
615	35	
616	35	
617	35	
618	35	
619	35	
620	35	
621	35	
622	35	
623	35	
624	35	
625	35	
626	35	
627	35	
628	35	
629	35	
630	35	
631	35	
632	35	
633	35	
634	35	
635	35	
636	35	
637	35	
638	35	
639	35	
640	35	
641	35	
642	35	
643	35	
644	35	
645	35	
646	35	
647	35	
648	35	
649	35	
650	35	
651	35	
652	35	
653	35	
654	35	
655	35	
656	35	
657	36	
658	36	
659	36	
660	36	
661	36	
662	36	
663	38	
664	38	
665	38	
666	38	
667	38	
668	38	
669	38	
670	38	
671	38	
672	38	
673	38	
674	38	
675	38	
676	38	
677	38	
678	38	
679	38	
680	38	
681	38	
682	38	
683	38	
684	40	
685	40	
686	40	
687	40	
688	40	
689	40	
690	40	
691	40	
692	40	
693	40	
694	40	
695	40	
696	40	
697	40	
698	40	
699	40	
700	40	
701	40	
702	40	
703	40	
704	40	
705	40	
706	40	
707	40	
708	40	
709	42	
710	42	
711	43	
712	43	
713	44	
714	44	
715	44	
716	44	
717	44	
718	44	
719	44	
720	44	
721	44	
722	44	
723	44	
724	44	
725	44	
726	44	
727	44	
728	44	
729	44	
730	44	
731	44	
732	44	
733	44	
734	44	
735	44	
736	44	
737	44	
738	44	
739	44	
740	44	
741	44	
742	44	
743	44	
744	44	
745	44	
746	44	
747	44	
748	44	
749	44	
750	44	
751	44	
752	44	
753	44	
754	44	
755	44	
756	44	
757	44	
758	44	
759	44	
760	44	
761	44	
762	44	
763	44	
764	44	
765	44	
766	44	
767	44	
768	44	
769	44	
770	44	
771	44	
772	44	
773	44	
774	44	
775	44	
776	44	
777	44	
778	44	
779	44	
780	44	
781	44	
782	44	
783	47	
784	47	
785	47	
786	47	
787	47	
788	47	
789	47	
790	47	
791	47	
792	47	
793	47	
794	49	
795	49	
796	49	
797	49	
798	49	
799	49	
800	49	
801	49	
802	49	
803	49	
804	49	
805	49	
806	49	
807	49	
808	49	
809	49	
810	49	
811	49	
812	49	
813	49	
814	49	
815	49	
816	49	
817	50	
818	50	
819	50	
820	50	
821	50	
822	50	
823	50	
824	50	
825	50	
826	50	
827	50	
828	50	
829	50	
830	50	
831	50	
832	50	
833	50	
834	50	
835	50	
836	50	
837	50	
838	50	
839	50	
840	50	
841	50	
842	50	
843	50	
844	50	
845	50	
846	50	
847	50	
848	50	
849	50	
850	52	
851	52	
852	52	
853	52	
854	52	
855	52	
856	52	
857	52	
858	52	
859	52	
860	52	
861	52	
862	52	
863	52	
864	52	
865	52	
866	52	
867	52	
868	52	
869	52	
870	52	
871	52	
872	52	
873	52	
874	52	
875	52	
876	52	
877	52	
878	52	
879	52	
880	52	
881	52	
882	52	
883	52	
884	52	
885	52	
886	52	
887	52	
888	52	
889	52	
890	52	
891	52	
892	52	
893	52	
894	52	
895	52	
896	52	
897	53	
898	53	
899	53	
900	53	
901	53	
902	53	
903	53	
904	53	
905	53	
906	53	
907	53	
908	53	
909	53	
910	53	
911	53	
912	53	
913	53	
914	53	
915	53	
916	53	
917	53	
918	53	
919	53	
920	53	
921	53	
922	53	
923	53	
924	53	
925	53	
926	53	
927	53	
928	53	
929	53	
930	53	
931	53	
932	53	
933	53	
934	53	
935	53	
936	53	
937	53	
938	53	
939	53	
940	53	
941	53	
942	53	
943	53	
944	53	
945	53	
946	53	
947	53	
948	53	
949	53	
950	53	
951	53	
952	53	
953	53	
954	53	
955	53	
956	53	
957	53	
958	53	
959	53	
960	53	
961	53	
962	53	
963	53	
964	53	
965	53	
966	53	
967	53	
968	53	
969	53	
970	53	
971	53	
972	53	
973	53	
974	53	
975	53	
976	53	
977	53	
978	53	
979	53	
980	53	
981	53	
982	53	
983	53	
984	53	
985	53	
986	53	
987	53	
988	53	
989	53	
990	53	
991	53	
992	53	
993	53	
994	53	
995	53	
996	53	
997	53	
998	53	
999	54	
1000	54	
1001	54	
1002	54	
1003	55	
1004	55	
1005	55	
1006	55	
1007	55	
1008	55	
1009	55	
1010	55	
1011	55	
1012	55	
1013	55	
1014	55	
1015	55	
1016	55	
1017	55	
1018	55	
1019	55	
1020	55	
1021	55	
1022	55	
1023	55	
1024	55	
1025	55	
1026	55	
1027	55	
1028	55	
1029	55	
1030	55	
1031	55	
1032	55	
1033	55	
1034	55	
1035	55	
1036	55	
1037	55	
1038	55	
1039	55	
1040	55	
1041	55	
1042	55	
1043	55	
1044	55	
1045	55	
1046	55	
1047	55	
1048	55	
1049	55	
1050	55	
1051	55	
1052	55	
1053	55	
1054	55	
1055	55	
1056	55	
1057	55	
1058	55	
1059	55	
1060	55	
1061	55	
1062	55	
1063	55	
1064	69	
1065	69	
1066	69	
1067	69	
1068	69	
1069	69	
1070	69	
1071	69	
1072	69	
1073	69	
1074	69	
1075	69	
1076	69	
1077	69	
1078	69	
1079	69	
1080	69	
1081	69	
1082	69	
1083	69	
1084	69	
1085	69	
1086	69	
1087	70	
1088	70	
1089	70	
1090	70	
1091	70	
1092	70	
1093	70	
1094	70	
1095	70	
1096	70	
1097	70	
1098	70	
1099	70	
1100	70	
1101	70	
1102	70	
1103	70	
1104	70	
1105	70	
1106	70	
1107	70	
1108	70	
1109	70	
1110	70	
1111	70	
1112	70	
1113	70	
1114	70	
1115	70	
1116	70	
1117	70	
1118	70	
1119	70	
1120	70	
1121	70	
1122	70	
1123	70	
1124	70	
1125	70	
1126	70	
1127	70	;



param: referencia_vaga:=		
1	1	
2	2	
3	3	
4	4	
5	5	
6	6	
7	7	
8	8	
9	9	
10	10	
11	11	
12	12	
13	13	
14	14	
15	15	
16	16	
17	17	
18	18	
19	19	
20	20	
21	21	
22	22	
23	23	
24	24	
25	25	
26	26	
27	27	
28	28	
29	29	
30	30	
31	31	
32	32	
33	33	
34	34	
35	35	
36	36	
37	37	
38	38	
39	39	
40	40	
41	41	
42	42	
43	43	
44	44	
45	45	
46	46	
47	47	
48	48	
49	49	
50	50	
51	51	
52	52	
53	53	
54	54	
55	55	
56	56	
57	57	
58	58	
59	59	
60	60	
61	61	
62	62	
63	63	
64	64	
65	65	
66	66	
67	67	
68	68	
69	69	
70	70	
71	71	;






param: peso:=		
1	1	
2	1	
3	1	
4	1	
5	1	
6	1	
7	1	
8	1	
9	1	
10	1	
11	1	
12	1	
13	1	
14	1	
15	1	
16	1	
17	1	
18	1	
19	1	
20	1	
21	1	
22	1	
23	1	
24	1	
25	1	
26	1	
27	1	
28	1	
29	1	
30	1	
31	1	
32	1	
33	1	
34	1	
35	1	
36	1	
37	1	
38	1	
39	1	
40	1	
41	1	
42	1	
43	1	
44	1	
45	1	
46	1	
47	1	
48	1	
49	1	
50	1	
51	1	
52	1	
53	1	
54	1	
55	1	
56	1	
57	1	
58	1	
59	1	
60	1	
61	1	
62	1	
63	1	
64	1	
65	1	
66	1	
67	1	
68	1	
69	1	
70	1	
71	1	
72	1	
73	1	
74	1	
75	1	
76	1	
77	1	
78	1	
79	1	
80	1	
81	1	
82	1	
83	1	
84	1	
85	1	
86	1	
87	1	
88	1	
89	1	
90	1	
91	1	
92	1	
93	1	
94	1	
95	1	
96	1	
97	1	
98	1	
99	1	
100	1	
101	1	
102	1	
103	1	
104	1	
105	1	
106	1	
107	1	
108	1	
109	1	
110	1	
111	1	
112	1	
113	1	
114	1	
115	1	
116	1	
117	1	
118	1	
119	1	
120	1	
121	1	
122	1	
123	1	
124	1	
125	1	
126	1	
127	1	
128	1	
129	1	
130	1	
131	1	
132	1	
133	1	
134	1	
135	1	
136	1	
137	1	
138	1	
139	1	
140	1	
141	1	
142	1	
143	1	
144	1	
145	1	
146	1	
147	1	
148	1	
149	1	
150	1	
151	1	
152	1	
153	1	
154	1	
155	1	
156	1	
157	1	
158	1	
159	1	
160	1	
161	1	
162	1	
163	1	
164	1	
165	1	
166	1	
167	1	
168	1	
169	1	
170	1	
171	1	
172	1	
173	1	
174	1	
175	1	
176	1	
177	1	
178	1	
179	1	
180	1	
181	1	
182	1	
183	1	
184	1	
185	1	
186	1	
187	1	
188	1	
189	1	
190	1	
191	1	
192	1	
193	1	
194	1	
195	1	
196	1	
197	1	
198	1	
199	1	
200	1	
201	1	
202	1	
203	1	
204	1	
205	1	
206	1	
207	1	
208	1	
209	1	
210	1	
211	1	
212	1	
213	1	
214	1	
215	1	
216	1	
217	1	
218	1	
219	1	
220	1	
221	1	
222	1	
223	1	
224	1	
225	1	
226	1	
227	1	
228	1	
229	1	
230	1	
231	1	
232	1	
233	1	
234	1	
235	1	
236	1	
237	1	
238	1	
239	1	
240	1	
241	1	
242	1	
243	1	
244	1	
245	1	
246	1	
247	1	
248	1	
249	1	
250	1	
251	1	
252	1	
253	1	
254	1	
255	1	
256	1	
257	1	
258	1	
259	1	
260	1	
261	1	
262	1	
263	1	
264	1	
265	1	
266	1	
267	1	
268	1	
269	1	
270	1	
271	1	
272	1	
273	1	
274	1	
275	1	
276	1	
277	1	
278	1	
279	1	
280	1	
281	1	
282	1	
283	1	
284	1	
285	1	
286	1	
287	1	
288	1	
289	1	
290	1	
291	1	
292	1	
293	1	
294	1	
295	1	
296	1	
297	1	
298	1	
299	1	
300	1	
301	1	
302	1	
303	1	
304	1	
305	1	
306	1	
307	1	
308	1	
309	1	
310	1	
311	1	
312	1	
313	1	
314	1	
315	1	
316	1	
317	1	
318	1	
319	1	
320	1	
321	1	
322	1	
323	1	
324	1	
325	1	
326	1	
327	1	
328	1	
329	1	
330	1	
331	1	
332	1	
333	1	
334	1	
335	1	
336	1	
337	1	
338	1	
339	1	
340	1	
341	1	
342	1	
343	1	
344	1	
345	1	
346	1	
347	1	
348	1	
349	1	
350	1	
351	1	
352	1	
353	1	
354	1	
355	1	
356	1	
357	1	
358	1	
359	1	
360	1	
361	1	
362	1	
363	1	
364	1	
365	1	
366	1	
367	1	
368	1	
369	1	
370	1	
371	1	
372	1	
373	1	
374	1	
375	1	
376	1	
377	1	
378	1	
379	1	
380	1	
381	1	
382	1	
383	1	
384	1	
385	1	
386	1	
387	1	
388	1	
389	1	
390	1	
391	1	
392	1	
393	1	
394	1	
395	1	
396	1	
397	1	
398	1	
399	1	
400	1	
401	1	
402	1	
403	1	
404	1	
405	1	
406	1	
407	1	
408	1	
409	1	
410	1	
411	1	
412	1	
413	1	
414	1	
415	1	
416	1	
417	1	
418	1	
419	1	
420	1	
421	1	
422	1	
423	1	
424	1	
425	1	
426	1	
427	1	
428	1	
429	1	
430	1	
431	1	
432	1	
433	1	
434	1	
435	1	
436	1	
437	1	
438	1	
439	1	
440	1	
441	1	
442	1	
443	1	
444	1	
445	1	
446	1	
447	1	
448	1	
449	1	
450	1	
451	1	
452	1	
453	1	
454	1	
455	1	
456	1	
457	1	
458	1	
459	1	
460	1	
461	1	
462	1	
463	1	
464	1	
465	1	
466	1	
467	1	
468	1	
469	1	
470	1	
471	1	
472	1	
473	1	
474	1	
475	1	
476	1	
477	1	
478	1	
479	1	
480	1	
481	1	
482	1	
483	1	
484	1	
485	1	
486	1	
487	1	
488	1	
489	1	
490	1	
491	1	
492	1	
493	1	
494	1	
495	1	
496	1	
497	1	
498	1	
499	1	
500	1	
501	1	
502	1	
503	1	
504	1	
505	1	
506	1	
507	1	
508	1	
509	1	
510	1	
511	1	
512	1	
513	1	
514	1	
515	1	
516	1	
517	1	
518	1	
519	1	
520	1	
521	1	
522	1	
523	1	
524	1	
525	1	
526	1	
527	1	
528	1	
529	1	
530	1	
531	1	
532	1	
533	1	
534	1	
535	1	
536	1	
537	1	
538	1	
539	1	
540	1	
541	1	
542	1	
543	1	
544	1	
545	1	
546	1	
547	1	
548	1	
549	1	
550	1	
551	1	
552	1	
553	1	
554	1	
555	1	
556	1	
557	1	
558	1	
559	1	
560	1	
561	1	
562	1	
563	1	
564	1	
565	1	
566	1	
567	1	
568	1	
569	1	
570	1	
571	1	
572	1	
573	1	
574	1	
575	1	
576	1	
577	1	
578	1	
579	1	
580	1	
581	1	
582	1	
583	1	
584	1	
585	1	
586	1	
587	1	
588	1	
589	1	
590	1	
591	1	
592	1	
593	1	
594	1	
595	1	
596	1	
597	1	
598	1	
599	1	
600	1	
601	1	
602	1	
603	1	
604	1	
605	1	
606	1	
607	1	
608	1	
609	1	
610	1	
611	1	
612	1	
613	1	
614	1	
615	1	
616	1	
617	1	
618	1	
619	1	
620	1	
621	1	
622	1	
623	1	
624	1	
625	1	
626	1	
627	1	
628	1	
629	1	
630	1	
631	1	
632	1	
633	1	
634	1	
635	1	
636	1	
637	1	
638	1	
639	1	
640	1	
641	1	
642	1	
643	1	
644	1	
645	1	
646	1	
647	1	
648	1	
649	1	
650	1	
651	1	
652	1	
653	1	
654	1	
655	1	
656	1	
657	1	
658	1	
659	1	
660	1	
661	1	
662	1	
663	1	
664	1	
665	1	
666	1	
667	1	
668	1	
669	1	
670	1	
671	1	
672	1	
673	1	
674	1	
675	1	
676	1	
677	1	
678	1	
679	1	
680	1	
681	1	
682	1	
683	1	
684	1	
685	1	
686	1	
687	1	
688	1	
689	1	
690	1	
691	1	
692	1	
693	1	
694	1	
695	1	
696	1	
697	1	
698	1	
699	1	
700	1	
701	1	
702	1	
703	1	
704	1	
705	1	
706	1	
707	1	
708	1	
709	1	
710	1	
711	1	
712	1	
713	1	
714	1	
715	1	
716	1	
717	1	
718	1	
719	1	
720	1	
721	1	
722	1	
723	1	
724	1	
725	1	
726	1	
727	1	
728	1	
729	1	
730	1	
731	1	
732	1	
733	1	
734	1	
735	1	
736	1	
737	1	
738	1	
739	1	
740	1	
741	1	
742	1	
743	1	
744	1	
745	1	
746	1	
747	1	
748	1	
749	1	
750	1	
751	1	
752	1	
753	1	
754	1	
755	1	
756	1	
757	1	
758	1	
759	1	
760	1	
761	1	
762	1	
763	1	
764	1	
765	1	
766	1	
767	1	
768	1	
769	1	
770	1	
771	1	
772	1	
773	1	
774	1	
775	1	
776	1	
777	1	
778	1	
779	1	
780	1	
781	1	
782	1	
783	1	
784	1	
785	1	
786	1	
787	1	
788	1	
789	1	
790	1	
791	1	
792	1	
793	1	
794	1	
795	1	
796	1	
797	1	
798	1	
799	1	
800	1	
801	1	
802	1	
803	1	
804	1	
805	1	
806	1	
807	1	
808	1	
809	1	
810	1	
811	1	
812	1	
813	1	
814	1	
815	1	
816	1	
817	1	
818	1	
819	1	
820	1	
821	1	
822	1	
823	1	
824	1	
825	1	
826	1	
827	1	
828	1	
829	1	
830	1	
831	1	
832	1	
833	1	
834	1	
835	1	
836	1	
837	1	
838	1	
839	1	
840	1	
841	1	
842	1	
843	1	
844	1	
845	1	
846	1	
847	1	
848	1	
849	1	
850	1	
851	1	
852	1	
853	1	
854	1	
855	1	
856	1	
857	1	
858	1	
859	1	
860	1	
861	1	
862	1	
863	1	
864	1	
865	1	
866	1	
867	1	
868	1	
869	1	
870	1	
871	1	
872	1	
873	1	
874	1	
875	1	
876	1	
877	1	
878	1	
879	1	
880	1	
881	1	
882	1	
883	1	
884	1	
885	1	
886	1	
887	1	
888	1	
889	1	
890	1	
891	1	
892	1	
893	1	
894	1	
895	1	
896	1	
897	1	
898	1	
899	1	
900	1	
901	1	
902	1	
903	1	
904	1	
905	1	
906	1	
907	1	
908	1	
909	1	
910	1	
911	1	
912	1	
913	1	
914	1	
915	1	
916	1	
917	1	
918	1	
919	1	
920	1	
921	1	
922	1	
923	1	
924	1	
925	1	
926	1	
927	1	
928	1	
929	1	
930	1	
931	1	
932	1	
933	1	
934	1	
935	1	
936	1	
937	1	
938	1	
939	1	
940	1	
941	1	
942	1	
943	1	
944	1	
945	1	
946	1	
947	1	
948	1	
949	1	
950	1	
951	1	
952	1	
953	1	
954	1	
955	1	
956	1	
957	1	
958	1	
959	1	
960	1	
961	1	
962	1	
963	1	
964	1	
965	1	
966	1	
967	1	
968	1	
969	1	
970	1	
971	1	
972	1	
973	1	
974	1	
975	1	
976	1	
977	1	
978	1	
979	1	
980	1	
981	1	
982	1	
983	1	
984	1	
985	1	
986	1	
987	1	
988	1	
989	1	
990	1	
991	1	
992	1	
993	1	
994	1	
995	1	
996	1	
997	1	
998	1	
999	1	
1000	1	
1001	1	
1002	1	
1003	1	
1004	1	
1005	1	
1006	1	
1007	1	
1008	1	
1009	1	
1010	1	
1011	1	
1012	1	
1013	1	
1014	1	
1015	1	
1016	1	
1017	1	
1018	1	
1019	1	
1020	1	
1021	1	
1022	1	
1023	1	
1024	1	
1025	1	
1026	1	
1027	1	
1028	1	
1029	1	
1030	1	
1031	1	
1032	1	
1033	1	
1034	1	
1035	1	
1036	1	
1037	1	
1038	1	
1039	1	
1040	1	
1041	1	
1042	1	
1043	1	
1044	1	
1045	1	
1046	1	
1047	1	
1048	1	
1049	1	
1050	1	
1051	1	
1052	1	
1053	1	
1054	1	
1055	1	
1056	1	
1057	1	
1058	1	
1059	1	
1060	1	
1061	1	
1062	1	
1063	1	
1064	1	
1065	1	
1066	1	
1067	1	
1068	1	
1069	1	
1070	1	
1071	1	
1072	1	
1073	1	
1074	1	
1075	1	
1076	1	
1077	1	
1078	1	
1079	1	
1080	1	
1081	1	
1082	1	
1083	1	
1084	1	
1085	1	
1086	1	
1087	1	
1088	1	
1089	1	
1090	1	
1091	1	
1092	1	
1093	1	
1094	1	
1095	1	
1096	1	
1097	1	
1098	1	
1099	1	
1100	1	
1101	1	
1102	1	
1103	1	
1104	1	
1105	1	
1106	1	
1107	1	
1108	1	
1109	1	
1110	1	
1111	1	
1112	1	
1113	1	
1114	1	
1115	1	
1116	1	
1117	1	
1118	1	
1119	1	
1120	1	
1121	1	
1122	1	
1123	1	
1124	1	
1125	1	
1126	1	
1127	1	;


param: pontos:=
1	55
2	69
3	87
4	55
5	69
6	69
7	9
8	37
9	55
10	69
11	69
12	55
13	9
14	55
15	55
16	55
17	67
18	55
19	69
20	8
21	8
22	9
23	9
24	69
25	69
26	9
27	55
28	69
29	69
30	55
31	9
32	37
33	9
34	37
35	9
36	9
37	8
38	9
39	9
40	55
41	9
42	9
43	37
44	69
45	69
46	37
47	9
48	55
49	9
50	9
51	37
52	55
53	9
54	9
55	83
56	55
57	55
58	9
59	55
60	55
61	55
62	55
63	55
64	55
65	55
66	55
67	9
68	55
69	55
70	83
71	55
72	55
73	55
74	55
75	97
76	55
77	83
78	55
79	55
80	55
81	55
82	55
83	83
84	69
85	69
86	8
87	9
88	53
89	9
90	9
91	9
92	9
93	37
94	9
95	9
96	9
97	9
98	9
99	8
100	9
101	54
102	55
103	55
104	55
105	83
106	68
107	55
108	55
109	69
110	55
111	55
112	55
113	37
114	83
115	55
116	36
117	9
118	83
119	8
120	55
121	9
122	9
123	55
124	9
125	55
126	55
127	55
128	55
129	55
130	9
131	68
132	55
133	55
134	9
135	68
136	8
137	9
138	37
139	9
140	9
141	55
142	55
143	55
144	9
145	55
146	55
147	9
148	83
149	9
150	55
151	9
152	55
153	9
154	7
155	69
156	55
157	55
158	9
159	69
160	83
161	83
162	55
163	55
164	9
165	54
166	54
167	55
168	69
169	55
170	55
171	55
172	55
173	55
174	55
175	69
176	55
177	55
178	55
179	55
180	55
181	55
182	59
183	55
184	55
185	55
186	55
187	55
188	55
189	68
190	8
191	8
192	53
193	9
194	53
195	55
196	55
197	55
198	55
199	8
200	53
201	53
202	83
203	8
204	55
205	55
206	54
207	55
208	55
209	55
210	55
211	55
212	55
213	53
214	55
215	55
216	55
217	55
218	55
219	9
220	8
221	55
222	9
223	54
224	9
225	55
226	83
227	55
228	55
229	54
230	55
231	53
232	82
233	55
234	55
235	54
236	53
237	8
238	9
239	54
240	55
241	55
242	55
243	55
244	54
245	55
246	53
247	55
248	55
249	55
250	55
251	52
252	55
253	9
254	55
255	82
256	55
257	53
258	53
259	55
260	54
261	55
262	55
263	55
264	8
265	55
266	55
267	59
268	55
269	55
270	55
271	55
272	53
273	55
274	55
275	55
276	55
277	55
278	69
279	55
280	55
281	69
282	69
283	83
284	83
285	55
286	87
287	55
288	55
289	83
290	55
291	69
292	55
293	55
294	55
295	54
296	55
297	55
298	55
299	67
300	55
301	55
302	69
303	55
304	55
305	55
306	55
307	55
308	55
309	55
310	55
311	55
312	69
313	55
314	55
315	55
316	55
317	55
318	55
319	69
320	55
321	55
322	69
323	55
324	55
325	68
326	55
327	55
328	69
329	55
330	55
331	83
332	55
333	55
334	69
335	69
336	83
337	55
338	55
339	55
340	55
341	83
342	55
343	55
344	83
345	55
346	55
347	55
348	55
349	55
350	83
351	55
352	55
353	55
354	55
355	83
356	55
357	55
358	55
359	54
360	55
361	55
362	55
363	55
364	55
365	55
366	55
367	55
368	55
369	83
370	55
371	55
372	55
373	55
374	83
375	55
376	55
377	59
378	55
379	55
380	55
381	69
382	83
383	69
384	68
385	55
386	55
387	55
388	82
389	83
390	55
391	55
392	83
393	55
394	55
395	55
396	55
397	55
398	55
399	55
400	55
401	69
402	55
403	55
404	55
405	68
406	69
407	55
408	55
409	55
410	55
411	55
412	55
413	83
414	55
415	54
416	68
417	69
418	83
419	83
420	55
421	55
422	54
423	83
424	9
425	37
426	68
427	69
428	83
429	55
430	55
431	55
432	55
433	55
434	55
435	68
436	55
437	55
438	55
439	55
440	55
441	55
442	69
443	55
444	55
445	54
446	55
447	69
448	83
449	54
450	83
451	55
452	55
453	55
454	83
455	55
456	55
457	37
458	55
459	55
460	82
461	55
462	82
463	55
464	55
465	69
466	55
467	55
468	55
469	55
470	55
471	55
472	55
473	55
474	55
475	69
476	55
477	9
478	55
479	54
480	55
481	8
482	55
483	9
484	9
485	55
486	55
487	83
488	9
489	9
490	54
491	9
492	37
493	9
494	8
495	69
496	55
497	55
498	55
499	8
500	9
501	54
502	55
503	9
504	55
505	37
506	55
507	97
508	55
509	9
510	8
511	55
512	9
513	9
514	9
515	55
516	55
517	9
518	55
519	55
520	55
521	55
522	54
523	54
524	55
525	55
526	55
527	9
528	55
529	55
530	55
531	55
532	9
533	8
534	55
535	9
536	9
537	9
538	54
539	55
540	9
541	55
542	55
543	9
544	55
545	55
546	54
547	8
548	55
549	9
550	55
551	55
552	55
553	55
554	83
555	55
556	37
557	55
558	55
559	55
560	55
561	55
562	8
563	9
564	9
565	54
566	9
567	8
568	54
569	55
570	36
571	54
572	54
573	55
574	9
575	83
576	54
577	8
578	83
579	54
580	9
581	9
582	55
583	55
584	82
585	9
586	55
587	9
588	54
589	9
590	82
591	55
592	55
593	55
594	9
595	83
596	8
597	8
598	9
599	55
600	55
601	55
602	9
603	9
604	9
605	55
606	55
607	83
608	83
609	55
610	55
611	8
612	9
613	55
614	8
615	55
616	55
617	9
618	35
619	55
620	55
621	83
622	69
623	55
624	55
625	55
626	55
627	55
628	55
629	69
630	55
631	54
632	9
633	9
634	9
635	55
636	54
637	55
638	55
639	54
640	55
641	69
642	55
643	55
644	97
645	55
646	69
647	54
648	54
649	55
650	55
651	54
652	55
653	55
654	97
655	68
656	54
657	55
658	54
659	55
660	55
661	55
662	54
663	55
664	55
665	55
666	55
667	54
668	55
669	83
670	83
671	55
672	55
673	55
674	82
675	83
676	55
677	55
678	83
679	55
680	55
681	55
682	83
683	55
684	82
685	55
686	55
687	55
688	55
689	55
690	83
691	55
692	55
693	55
694	69
695	83
696	55
697	55
698	55
699	55
700	83
701	37
702	97
703	83
704	83
705	83
706	55
707	55
708	54
709	69
710	69
711	55
712	55
713	55
714	55
715	36
716	9
717	9
718	9
719	9
720	55
721	9
722	8
723	69
724	9
725	9
726	9
727	9
728	9
729	9
730	66
731	8
732	69
733	9
734	9
735	69
736	9
737	9
738	9
739	69
740	55
741	69
742	9
743	8
744	58
745	69
746	73
747	8
748	97
749	9
750	9
751	9
752	9
753	9
754	55
755	69
756	8
757	9
758	9
759	8
760	55
761	9
762	55
763	54
764	58
765	58
766	67
767	55
768	55
769	9
770	69
771	9
772	55
773	55
774	55
775	55
776	83
777	55
778	55
779	55
780	55
781	55
782	55
783	9
784	9
785	8
786	9
787	9
788	9
789	9
790	9
791	83
792	83
793	69
794	54
795	9
796	55
797	54
798	55
799	83
800	54
801	54
802	82
803	55
804	83
805	83
806	55
807	55
808	54
809	55
810	55
811	55
812	69
813	83
814	54
815	69
816	54
817	55
818	55
819	7
820	54
821	54
822	54
823	55
824	55
825	55
826	55
827	55
828	54
829	55
830	54
831	55
832	55
833	53
834	55
835	55
836	9
837	55
838	55
839	9
840	69
841	54
842	55
843	83
844	55
845	55
846	55
847	55
848	55
849	55
850	54
851	55
852	55
853	83
854	54
855	83
856	8
857	55
858	55
859	54
860	55
861	55
862	54
863	67
864	83
865	59
866	9
867	68
868	59
869	55
870	55
871	55
872	68
873	55
874	55
875	55
876	55
877	69
878	55
879	55
880	69
881	54
882	55
883	83
884	55
885	68
886	68
887	55
888	55
889	55
890	54
891	55
892	55
893	83
894	55
895	54
896	68
897	9
898	69
899	9
900	68
901	37
902	9
903	9
904	9
905	9
906	69
907	37
908	9
909	9
910	9
911	69
912	9
913	9
914	69
915	9
916	66
917	9
918	9
919	9
920	37
921	55
922	7
923	9
924	9
925	54
926	9
927	9
928	69
929	37
930	9
931	9
932	37
933	9
934	9
935	8
936	54
937	9
938	9
939	97
940	37
941	54
942	9
943	9
944	9
945	9
946	9
947	9
948	8
949	37
950	9
951	69
952	9
953	9
954	37
955	37
956	9
957	9
958	9
959	9
960	9
961	9
962	9
963	9
964	9
965	9
966	36
967	9
968	9
969	9
970	37
971	37
972	9
973	9
974	9
975	9
976	54
977	9
978	9
979	37
980	9
981	9
982	8
983	9
984	37
985	9
986	37
987	8
988	9
989	9
990	37
991	9
992	9
993	55
994	83
995	55
996	9
997	55
998	9
999	69
1000	55
1001	69
1002	69
1003	69
1004	69
1005	69
1006	55
1007	55
1008	55
1009	69
1010	69
1011	83
1012	55
1013	55
1014	54
1015	55
1016	54
1017	55
1018	96
1019	55
1020	54
1021	69
1022	69
1023	55
1024	55
1025	55
1026	55
1027	69
1028	69
1029	55
1030	54
1031	55
1032	55
1033	83
1034	69
1035	54
1036	83
1037	73
1038	55
1039	55
1040	73
1041	69
1042	55
1043	55
1044	55
1045	55
1046	55
1047	55
1048	55
1049	68
1050	55
1051	55
1052	55
1053	55
1054	55
1055	55
1056	55
1057	55
1058	55
1059	69
1060	55
1061	55
1062	55
1063	55
1064	83
1065	55
1066	55
1067	55
1068	55
1069	9
1070	55
1071	69
1072	9
1073	55
1074	9
1075	55
1076	55
1077	9
1078	54
1079	55
1080	55
1081	55
1082	83
1083	55
1084	55
1085	55
1086	55
1087	55
1088	55
1089	55
1090	55
1091	9
1092	69
1093	55
1094	83
1095	69
1096	69
1097	9
1098	54
1099	55
1100	9
1101	55
1102	55
1103	55
1104	55
1105	55
1106	55
1107	55
1108	69
1109	55
1110	55
1111	55
1112	55
1113	55
1114	55
1115	55
1116	55
1117	55
1118	69
1119	55
1120	83
1121	55
1122	55
1123	69
1124	55
1125	69
1126	55
1127	69;
